python/teste0
3 3
1 7 2 1 0 4
2 8 1 10 0 8
1 3 2 7 0 3
